NAME : tsp_211_sol.txt
COMMENT : OR-Tools Guided Local Search
TYPE : TOUR
DIMENSION : 50
COST : 5643
STATUS : ROUTING_SUCCESS
GAP : 0.00% (Reference Solution)
TOUR_SECTION
1
7
41
15
28
18
32
6
23
29
20
47
34
49
19
17
33
27
38
25
26
36
24
11
40
8
46
37
45
9
12
31
10
22
21
2
14
30
13
42
44
16
5
48
50
35
3
4
39
43
-1
